clingo version 5.7.1 (849f282)
Reading from ES_hexagons_2params.lp
Reading      : 4.247
Preprocessing: 2.818
Sat-Prepro   :Sat-Prepro   : S:        0/1107798 Sat-Prepro   : S:     8192/1107798 Sat-Prepro   : S:    16384/1107798 Sat-Prepro   : S:    24576/1107798 Sat-Prepro   : S:    32768/1107798 Sat-Prepro   : S:    40960/1107798 Sat-Prepro   : S:    49152/1107798 Sat-Prepro   : S:    57344/1107798 Sat-Prepro   : S:    65536/1107798 Sat-Prepro   : S:    73728/1107798 Sat-Prepro   : S:    81920/1107798 Sat-Prepro   : S:    90112/1107798 Sat-Prepro   : S:    98304/1107798 Sat-Prepro   : S:   106496/1107798 Sat-Prepro   : S:   114688/1107798 Sat-Prepro   : S:   122880/1107798 Sat-Prepro   : S:   131072/1107798 Sat-Prepro   : S:   139264/1107798 Sat-Prepro   : S:   147456/1107798 Sat-Prepro   : S:   155648/1107798 Sat-Prepro   : S:   163840/1107798 Sat-Prepro   : S:   172032/1107798 Sat-Prepro   : S:   180224/1107798 Sat-Prepro   : S:   188416/1107798 Sat-Prepro   : S:   196608/1107798 Sat-Prepro   : S:   204800/1107798 Sat-Prepro   : S:   212992/1107798 Sat-Prepro   : S:   221184/1107798 Sat-Prepro   : S:   229376/1107798 Sat-Prepro   : S:   237568/1107798 Sat-Prepro   : S:   245760/1107798 Sat-Prepro   : S:   253952/1107798 Sat-Prepro   : S:   262144/1107798 Sat-Prepro   : S:   270336/1107798 Sat-Prepro   : S:   278528/1107798 Sat-Prepro   : S:   286720/1107798 Sat-Prepro   : S:   294912/1107798 Sat-Prepro   : S:   303104/1107798 Sat-Prepro   : S:   311296/1107798 Sat-Prepro   : S:   319488/1107798 Sat-Prepro   : S:   327680/1107798 Sat-Prepro   : S:   335872/1107798 Sat-Prepro   : S:   344064/1107798 Sat-Prepro   : S:   352256/1107798 Sat-Prepro   : S:   360448/1107798 Sat-Prepro   : S:   368640/1107798 Sat-Prepro   : S:   376832/1107798 Sat-Prepro   : S:   385024/1107798 Sat-Prepro   : S:   393216/1107798 Sat-Prepro   : S:   401408/1107798 Sat-Prepro   : S:   409600/1107798 Sat-Prepro   : S:   417792/1107798 Sat-Prepro   : S:   425984/1107798 Sat-Prepro   : S:   434176/1107798 Sat-Prepro   : S:   442368/1107798 Sat-Prepro   : S:   450560/1107798 Sat-Prepro   : S:   458752/1107798 Sat-Prepro   : S:   466944/1107798 Sat-Prepro   : S:   475136/1107798 Sat-Prepro   : S:   483328/1107798 Sat-Prepro   : S:   491520/1107798 Sat-Prepro   : S:   499712/1107798 Sat-Prepro   : S:   507904/1107798 Sat-Prepro   : S:   516096/1107798 Sat-Prepro   : S:   524288/1107798 Sat-Prepro   : S:   532480/1107798 Sat-Prepro   : S:   540672/1107798 Sat-Prepro   : S:   548864/1107798 Sat-Prepro   : S:   557056/1107798 Sat-Prepro   : S:   565248/1107798 Sat-Prepro   : S:   573440/1107798 Sat-Prepro   : S:   581632/1107798 Sat-Prepro   : S:   589824/1107798 Sat-Prepro   : S:   598016/1107798 Sat-Prepro   : S:   606208/1107798 Sat-Prepro   : S:   614400/1107798 Sat-Prepro   : S:   622592/1107798 Sat-Prepro   : S:   630784/1107798 Sat-Prepro   : S:   638976/1107798 Sat-Prepro   : S:   647168/1107798 Sat-Prepro   : S:   655360/1107798 Sat-Prepro   : S:   663552/1107798 Sat-Prepro   : S:   671744/1107798 Sat-Prepro   : S:   679936/1107798 Sat-Prepro   : S:   688128/1107798 Sat-Prepro   : S:   696320/1107798 Sat-Prepro   : S:   704512/1107798 Sat-Prepro   : S:   712704/1107798 Sat-Prepro   : S:   720896/1107798 Sat-Prepro   : S:   729088/1107798 Sat-Prepro   : S:   737280/1107798 Sat-Prepro   : S:   745472/1107798 Sat-Prepro   : S:   753664/1107798 Sat-Prepro   : S:   761856/1107798 Sat-Prepro   : S:   770048/1107798 Sat-Prepro   : S:   778240/1107798 Sat-Prepro   : S:   786432/1107798 Sat-Prepro   : S:   794624/1107798 Sat-Prepro   : S:   802816/1107798 Sat-Prepro   : S:   811008/1107798 Sat-Prepro   : S:   819200/1107798 Sat-Prepro   : S:   827392/1107798 Sat-Prepro   : S:   835584/1107798 Sat-Prepro   : S:   843776/1107798 Sat-Prepro   : S:   851968/1107798 Sat-Prepro   : S:   860160/1107798 Sat-Prepro   : S:   868352/1107798 Sat-Prepro   : S:   876544/1107798 Sat-Prepro   : S:   884736/1107798 Sat-Prepro   : S:   892928/1107798 Sat-Prepro   : S:   901120/1107798 Sat-Prepro   : S:   909312/1107798 Sat-Prepro   : S:   917504/1107798 Sat-Prepro   : S:   925696/1107798 Sat-Prepro   : S:   933888/1107798 Sat-Prepro   : S:   942080/1107798 Sat-Prepro   : S:   950272/1107798 Sat-Prepro   : S:   958464/1107798 Sat-Prepro   : S:   966656/1107798 Sat-Prepro   : S:   974848/1107798 Sat-Prepro   : S:   983040/1107798 Sat-Prepro   : S:   991232/1107798 Sat-Prepro   : S:   999424/1107798 Sat-Prepro   : S:  1007616/1107798 Sat-Prepro   : S:  1015808/1107798 Sat-Prepro   : S:  1024000/1107798 Sat-Prepro   : S:  1032192/1107798 Sat-Prepro   : S:  1040384/1107798 Sat-Prepro   : S:  1048576/1108162 Sat-Prepro   : S:  1056768/1108162 Sat-Prepro   : S:  1064960/1108162 Sat-Prepro   : S:  1073152/1108162 Sat-Prepro   : S:  1081344/1108162 Sat-Prepro   : S:  1089536/1108162 Sat-Prepro   : S:  1097728/1108162 Sat-Prepro   : S:  1105920/1108162 Sat-Prepro   : B:        0/59684   Sat-Prepro   : B:     8192/51492   Sat-Prepro   : B:    16384/43300   Sat-Prepro   : B:    24576/35109   Sat-Prepro   : B:    32768/26917   Sat-Prepro   : B:    40960/18733   Sat-Prepro   : B:    49152/10554   Sat-Prepro   : B:    57344/2366    Sat-Prepro   : E:        0/59684   Sat-Prepro   : E:     8192/51492   Sat-Prepro   : E:    16384/43300   Sat-Prepro   : E:    24576/35108   Sat-Prepro   : E:    32768/26916   Sat-Prepro   : E:    40960/18724   Sat-Prepro   : E:    49152/10532   Sat-Prepro   : E:    57344/2766    Sat-Prepro   : B:        0/12167   Sat-Prepro   : B:     8192/3975    Sat-Prepro   : 8.958 (ClRemoved: 356820 ClAdded: 114027 LitsStr: 1159)
Solving...
----------------------------------------------------------------------------|
ID:T       Vars           Constraints         State            Limits       |
       #free/#fixed   #problem/#learnt  #conflicts/ratio #conflict/#learnt  |
----------------------------------------------------------------------------|
 0:R|  12340/680    |  866073/0       |         0/0.000 |     100/40200     |
 0:R|  12340/680    |  866073/100     |       100/0.485 |     150/40200     |
 0:R|  12340/680    |  866073/249     |       251/0.466 |     225/40200     |
 0:R|  12340/680    |  866073/474     |       476/0.408 |     337/40200     |
 0:R|  12340/680    |  866073/810     |       813/0.431 |     506/40200     |
 0:R|  12340/680    |  866073/1312    |      1320/0.444 |     759/40200     |
 0:R|  12340/680    |  866073/2071    |      2079/0.433 |    1139/40200     |
 0:R|  12340/680    |  866073/3202    |      3219/0.454 |    1708/40200     |
 0:R|  12340/680    |  866073/4906    |      4928/0.479 |    2562/40200     |
 0:R|  12340/680    |  866073/7461    |      7490/0.512 |    3844/40200     |
 0:R|  12340/680    |  866073/11300   |     11334/0.540 |    5766/40200     |
 0:R|  12340/680    |  866073/17049   |     17100/0.567 |    8649/40200     |
 0:R|  12340/680    |  866073/25680   |     25749/0.575 |   12974/40200     |
 0:R|  12340/680    |  866073/38632   |     38723/0.591 |   19461/44220     |
 0:D|  11597/680    |  866073/11056   |     44337/0.591 |   13847/44220     |
 0:R|  12340/680    |  866073/24888   |     58185/0.606 |   29192/48642     |
 0:D|  11112/680    |  866073/12161   |     81975/0.615 |    5402/48642     |
 0:R|  12340/680    |  866073/17560   |     87377/0.616 |   43789/53506     |
 0:D|  11666/680    |  866073/13377   |    123387/0.626 |    7779/53506     |
 0:R|  12340/680    |  866073/21142   |    131166/0.627 |   65684/58856     |
----------------------------------------------------------------------------|
ID:T       Vars           Constraints         State            Limits       |
       #free/#fixed   #problem/#learnt  #conflicts/ratio #conflict/#learnt  |
----------------------------------------------------------------------------|
 0:D|  11152/680    |  866073/14715   |    168950/0.633 |   27900/58856     |
 0:R|  12340/680    |  866073/42568   |    196850/0.640 |   98526/64742     |
 0:D|   9412/680    |  866073/16186   |    219072/0.641 |   76304/64742     |
 0:D|  11861/680    |  866073/16186   |    267699/0.648 |   27677/64742     |
 0:R|  12340/680    |  866073/43835   |    295378/0.654 |  147789/71216     |
 0:D|  11664/680    |  866073/17805   |    322809/0.654 |  120358/71216     |
 0:D|  10137/680    |  866073/17805   |    376262/0.659 |   66905/71216     |
 0:D|  11065/680    |  866073/17805   |    429718/0.656 |   13449/71216     |
 0:R|  12340/680    |  866073/31247   |    443170/0.656 |  221683/78338     |
 0:D|  12027/680    |  866073/19585   |    490315/0.655 |  174538/78338     |
 0:D|  10482/680    |  866073/19585   |    549133/0.655 |  115720/78338     |
 0:D|  11620/680    |  866073/19585   |    607917/0.658 |   56936/78338     |
 0:R|  12340/680    |  866073/76487   |    664853/0.659 |  332525/86172     |
 0:D|  11285/680    |  866073/21544   |    674550/0.658 |  322828/86172     |
 0:D|  11464/680    |  866073/21544   |    739223/0.660 |  258155/86172     |
 0:D|  11746/680    |  866073/21544   |    803911/0.661 |  193467/86172     |
 0:D|  10740/680    |  866073/21544   |    868584/0.662 |  128794/86172     |
 0:D|  11695/680    |  866073/21544   |    933245/0.663 |   64133/86172     |
 0:R|  12340/680    |  866073/85637   |    997379/0.664 |  498788/94789     |
 0:D|  10503/680    |  866073/23698   |   1006551/0.663 |  489616/94789     |
----------------------------------------------------------------------------|
ID:T       Vars           Constraints         State            Limits       |
       #free/#fixed   #problem/#learnt  #conflicts/ratio #conflict/#learnt  |
----------------------------------------------------------------------------|
 0:D|  10906/680    |  866073/23698   |   1077705/0.665 |  418462/94789     |
 0:D|   9560/680    |  866073/23698   |   1148837/0.666 |  347330/94789     |
 0:D|  11938/680    |  866073/23698   |   1219977/0.668 |  276190/94789     |
 0:D|  11369/680    |  866073/23699   |   1291125/0.667 |  205042/94789     |
 0:D|   9469/680    |  866073/23698   |   1362269/0.668 |  133898/94789     |
 0:D|  10812/680    |  866073/23698   |   1433400/0.669 |   62767/94789     |
 0:R|  12340/680    |  866073/86416   |   1496170/0.669 |  748182/104268    |
 0:D|  10184/680    |  866073/26068   |   1514041/0.669 |  730311/104268    |
 0:D|  10940/680    |  866073/26068   |   1592285/0.670 |  652067/104268    |
 0:D|  10363/680    |  866073/26068   |   1670527/0.670 |  573825/104268    |
 0:D|  11710/680    |  866073/26068   |   1748783/0.671 |  495569/104268    |
 0:D|  10580/680    |  866073/26068   |   1827027/0.671 |  417325/104268    |
 0:D|  11248/680    |  866073/26068   |   1905269/0.671 |  339083/104268    |
 0:D|  11655/680    |  866073/26068   |   1983503/0.672 |  260849/104268    |
 0:D|  12139/680    |  866073/26068   |   2061730/0.673 |  182622/104268    |
 0:D|  11132/680    |  866073/26068   |   2139973/0.673 |  104379/104268    |
 0:D|  11703/680    |  866073/26068   |   2218206/0.674 |   26146/104268    |
 0:R|  12340/680    |  866073/52191   |   2244352/0.674 | 1122274/114695    |
 0:D|  11644/680    |  866073/28674   |   2306907/0.673 | 1059719/114695    |
 0:D|  11493/680    |  866073/28675   |   2392969/0.674 |  973657/114695    |
----------------------------------------------------------------------------|
ID:T       Vars           Constraints         State            Limits       |
       #free/#fixed   #problem/#learnt  #conflicts/ratio #conflict/#learnt  |
----------------------------------------------------------------------------|
 0:D|  11256/680    |  866073/28674   |   2479064/0.674 |  887562/114695    |
 0:D|  12076/680    |  866073/28675   |   2565117/0.674 |  801509/114695    |
 0:D|  10968/680    |  866073/28674   |   2651179/0.674 |  715447/114695    |
 0:D|  11537/680    |  866073/28675   |   2737226/0.675 |  629400/114695    |
 0:D|  10030/680    |  866073/28674   |   2823279/0.675 |  543347/114695    |
 0:D|  10850/680    |  866073/28675   |   2909333/0.675 |  457293/114695    |
 0:D|  11713/680    |  866073/28674   |   2995391/0.675 |  371235/114695    |
 0:D|  11250/680    |  866073/28674   |   3081454/0.675 |  285172/114695    |
 0:D|  10457/680    |  866073/28674   |   3167504/0.675 |  199122/114695    |
 0:D|  10966/680    |  866073/28675   |   3253560/0.675 |  113066/114695    |
 0:D|  11346/680    |  866073/28674   |   3339612/0.676 |   27014/114695    |
 0:R|  12340/680    |  866073/55676   |   3366627/0.676 | 1683411/126164    |
 0:D|   9778/680    |  866073/31542   |   3437144/0.675 | 1612894/126164    |
 0:D|  10153/680    |  866073/31542   |   3531817/0.675 | 1518221/126164    |
 0:D|  11416/680    |  866073/31542   |   3626466/0.676 | 1423572/126164    |
 0:D|  11167/680    |  866073/31542   |   3721139/0.676 | 1328899/126164    |
 0:D|  11338/680    |  866073/31542   |   3815809/0.676 | 1234229/126164    |
 0:D|  11323/680    |  866073/31542   |   3910475/0.677 | 1139563/126164    |
 0:D|  11300/680    |  866073/31542   |   4005130/0.677 | 1044908/126164    |
 0:D|  10838/680    |  866073/31542   |   4099791/0.678 |  950247/126164    |
----------------------------------------------------------------------------|
ID:T       Vars           Constraints         State            Limits       |
       #free/#fixed   #problem/#learnt  #conflicts/ratio #conflict/#learnt  |
----------------------------------------------------------------------------|
 0:D|  11176/680    |  866073/31542   |   4194453/0.678 |  855585/126164    |
 0:D|  10929/680    |  866073/31542   |   4289104/0.678 |  760934/126164    |
 0:D|  11566/680    |  866073/31542   |   4383760/0.678 |  666278/126164    |
 0:D|  11050/680    |  866073/31542   |   4478415/0.678 |  571623/126164    |
 0:D|  10129/680    |  866073/31542   |   4573075/0.678 |  476963/126164    |
 0:D|  10246/680    |  866073/31542   |   4667739/0.678 |  382299/126164    |
 0:D|   9953/680    |  866073/31542   |   4762405/0.678 |  287633/126164    |
 0:D|  11379/680    |  866073/31542   |   4857070/0.679 |  192968/126164    |
 0:D|  11190/680    |  866073/31542   |   4951741/0.679 |   98297/126164    |
 0:D|  11102/680    |  866073/31542   |   5046392/0.679 |    3646/126164    |
 0:R|  12340/680    |  866073/35191   |   5050041/0.679 | 2525116/138781    |
 0:D|  11672/680    |  866073/34696   |   5153672/0.679 | 2421485/138781    |
 0:D|  12135/680    |  866073/34696   |   5257797/0.678 | 2317360/138781    |
 0:D|  11508/680    |  866073/34696   |   5361914/0.679 | 2213243/138781    |
 0:D|  10733/682    |  861373/34696   |   5492148/0.678 | 2083009/138781    |
 0:D|  11863/682    |  861373/34696   |   5596273/0.679 | 1978884/138781    |
 0:D|  11059/682    |  861373/34697   |   5700396/0.679 | 1874761/138781    |
 0:D|  11093/682    |  861373/34696   |   5804505/0.679 | 1770652/138781    |
 0:D|  10631/684    |  855811/34696   |   5949366/0.679 | 1625791/138781    |
 0:D|  11566/684    |  855811/34696   |   6053500/0.679 | 1521657/138781    |
----------------------------------------------------------------------------|
ID:T       Vars           Constraints         State            Limits       |
       #free/#fixed   #problem/#learnt  #conflicts/ratio #conflict/#learnt  |
----------------------------------------------------------------------------|
 0:D|  11634/690    |  847150/34696   |   6244617/0.680 | 1330540/138781    |
 0:E|  11074/1946   |  436805/3593    |   6331211/0.680 | 1330540/138781    |
----------------------------------------------------------------------------|
UNSATISFIABLE

Models       : 0
Calls        : 1
Time         : 14870.303s (Solving: 14853.88s 1st Model: 0.00s Unsat: 14853.88s)
CPU Time     : 14864.490s

Choices      : 9312596 
Conflicts    : 6331211  (Analyzed: 6331210)
Restarts     : 25       (Average: 253248.40 Last: 1281169)
Problems     : 1        (Average Length: 0.00 Splits: 0)
Lemmas       : 6331210  (Deleted: 6052732)
  Binary     : 40       (Ratio:   0.00%)
  Ternary    : 3491     (Ratio:   0.06%)
  Conflict   : 6331210  (Average Length:   61.4 Ratio: 100.00%) 
  Loop       : 0        (Average Length:    0.0 Ratio:   0.00%) 
  Other      : 0        (Average Length:    0.0 Ratio:   0.00%) 
Backjumps    : 6331210  (Average:  1.47 Max: 163 Sum: 9312165)
  Executed   : 6331210  (Average:  1.47 Max: 163 Sum: 9312165 Ratio: 100.00%)
  Bounded    : 0        (Average:  0.00 Max:   0 Sum:      0 Ratio:   0.00%)

Rules        : 1297302 
  Choice     : 680     
Atoms        : 22350   
Bodies       : 1264573 
  Count      : 2345    
Equivalences : 22812    (Atom=Atom: 3922 Body=Body: 1466 Other: 17424)
Tight        : Yes
Variables    : 65494    (Eliminated: 52474 Frozen: 5130)
Constraints  : 866073   (Binary:   0.6% Ternary:   3.4% Other:  96.0%)

